DATASET = "thpack6";
INSTANCE = "095";

WIDTH = 233;
HEIGHT = 220;
LENGTH = 587;

NO_OF_SHAPES = 15;
size = [|
  101,69,20 |
  108,66,54 |
  74,62,33 |
  69,61,33 |
  71,64,31 |
  38,32,30 |
  108,47,37 |
  100,41,36 |
  99,79,39 |
  83,55,22 |
  99,49,36 |
  83,56,22 |
  66,52,44 |
  120,69,29 |
  101,90,50 |
|];

verticality = [|
  0,0,1 |
  0,1,1 |
  0,1,1 |
  0,1,1 |
  0,0,1 |
  1,1,1 |
  0,1,1 |
  0,1,1 |
  0,0,1 |
  0,0,1 |
  0,1,1 |
  0,0,1 |
  1,1,1 |
  0,0,1 |
  0,1,1 |
|];

box_count = [
  9,
  9,
  11,
  12,
  8,
  14,
  12,
  9,
  10,
  9,
  9,
  11,
  6,
  12,
  14,
];
